(set-info :smt-lib-version 2.6)
(set-logic QF_S)
(set-info :source |
Generated by: Murphy Berzish, Mitja Kulczynski, Federico Mora, Florin Manea, Joel Day, Dirk Nowotka, Vijay Ganesh, Zhengyang Lu
Generated on: 2020-10-01
Description: Translated from a collection of real-world regex queries, AutomataArk, collected by Loris D’Antoni and Fang Wang: https://github.com/lorisdanto/automatark
Application: Evaluate solvers on real-world regex queries
Target solver: Z3str3RE, CVC4, OSTRICH, Z3seq, Z3str3, Z3-Trau
Publications: Berzish, M., Kulczynski, M., Mora, F., Manea, F., Day, J. D., Nowotka, D., & Ganesh, V. (2021, July). An SMT solver for regular expressions and linear arithmetic over string length. In CAV 2021.
|)
(set-info :license "https://creativecommons.org/licenses/by/4.0/")
(set-info :category "industrial")
(set-info :status unsat)

(declare-const X String)
(assert (not (str.in_re X (re.++ (str.to_re "/filename=") (re.* (re.comp (str.to_re "\u{a}"))) (str.to_re ".abc/i\u{a}")))))
(assert (str.in_re X (re.union (re.++ (re.opt (str.to_re "+")) (str.to_re "1") (re.range "0" "7") (re.range "0" "9") (re.opt (re.++ (str.to_re ".") (re.+ (re.range "0" "9"))))) (re.++ (re.opt (str.to_re "+")) (re.opt (re.range "1" "9")) (re.range "0" "9") (re.opt (re.++ (str.to_re ".") (re.+ (re.range "0" "9"))))) (str.to_re "-180") (re.++ (str.to_re "-1") (re.range "1" "7") (re.range "0" "9") (re.opt (re.++ (str.to_re ".") (re.+ (re.range "0" "9"))))) (re.++ (str.to_re "-") (re.range "1" "9") (re.range "0" "9") (re.opt (re.++ (str.to_re ".") (re.+ (re.range "0" "9"))))) (re.++ (str.to_re "\u{a}-") (re.range "0" "9") (re.opt (re.++ (str.to_re ".") (re.+ (re.range "0" "9"))))))))
(assert (str.in_re X (re.++ (str.to_re "\u{a}+") (re.union (re.++ (str.to_re "1") (re.opt (str.to_re " ")) (re.opt (re.union (re.++ (str.to_re "2") (re.union (re.++ (str.to_re "4") (re.union (str.to_re "2") (str.to_re ",") (str.to_re "6"))) (re.++ (str.to_re "6") (re.union (str.to_re "4") (str.to_re ",") (str.to_re "8"))) (str.to_re "84"))) (re.++ (str.to_re "34") (re.union (str.to_re "0") (str.to_re "5"))) (re.++ (str.to_re "4") (re.union (str.to_re "41") (str.to_re "73"))) (re.++ (str.to_re "6") (re.union (str.to_re "49") (str.to_re "64") (re.++ (str.to_re "7") (re.union (str.to_re "0") (str.to_re ",") (str.to_re "1"))) (str.to_re "84"))) (re.++ (str.to_re "7") (re.union (str.to_re "58") (str.to_re "67") (re.++ (str.to_re "8") (re.union (str.to_re "4") (str.to_re ",") (str.to_re "7"))))) (re.++ (str.to_re "8") (re.union (str.to_re "09") (str.to_re "29") (re.++ (str.to_re "6") (re.union (str.to_re "8") (str.to_re ",") (str.to_re "9"))) (str.to_re "76"))) (str.to_re "939")))) (re.++ (str.to_re "2") (re.union (str.to_re "0") (re.++ (str.to_re "1") (re.union (re.range "1" "4") (str.to_re ",") (str.to_re "6") (str.to_re "8"))) (re.++ (str.to_re "2") (re.range "0" "9")) (re.++ (str.to_re "3") (re.range "0" "9")) (re.++ (str.to_re "4") (re.range "0" "9")) (re.++ (str.to_re "5") (re.range "0" "8")) (re.++ (str.to_re "6") (re.range "0" "9")) (str.to_re "7") (re.++ (str.to_re "9") (re.union (str.to_re "0") (str.to_re ",") (str.to_re "1") (re.range "7" "9"))))) (re.++ (str.to_re "3") (re.union (re.range "0" "4") (re.++ (str.to_re "5") (re.range "0" "9")) (str.to_re "6") (re.++ (str.to_re "7") (re.range "0" "9")) (re.++ (str.to_re "8") (re.union (re.range "0" "7") (str.to_re ",") (str.to_re "9"))) (str.to_re "9"))) (re.++ (str.to_re "4") (re.union (str.to_re "0") (str.to_re "1") (re.++ (str.to_re "2") (re.union (str.to_re "0") (str.to_re ",") (str.to_re "1") (str.to_re "3"))) (re.range "3" "9"))) (re.++ (str.to_re "5") (re.union (re.++ (str.to_re "0") (re.range "0" "9")) (re.range "1" "8") (re.++ (str.to_re "9") (re.range "0" "9")))) (re.++ (str.to_re "6") (re.union (re.range "0" "6") (re.++ (str.to_re "7") (re.union (str.to_re "0") (str.to_re ",") (re.range "2" "9"))) (re.++ (str.to_re "8") (re.union (re.range "0" "3") (str.to_re ",") (re.range "5" "9"))) (re.++ (str.to_re "9") (re.range "0" "2")))) (str.to_re "7") (re.++ (str.to_re "8") (re.union (re.++ (str.to_re "5") (re.union (str.to_re "0") (str.to_re ",") (str.to_re "2") (str.to_re "3") (str.to_re "5") (str.to_re "6"))) (str.to_re "6") (re.++ (str.to_re "8") (re.union (str.to_re "0") (str.to_re ",") (str.to_re "6"))) (str.to_re "1") (str.to_re ",") (str.to_re "2") (str.to_re "4"))) (re.++ (str.to_re "9") (re.union (re.range "0" "5") (re.++ (str.to_re "6") (re.range "0" "8")) (re.++ (str.to_re "7") (re.range "0" "7")) (str.to_re "8") (re.++ (str.to_re "9") (re.union (re.range "2" "6") (str.to_re "8")))))))))
(check-sat)

(exit)
